NAME: random-23-10689
TYPE: TSP
COMMENT: size=23 seed=10689
DIMENSION: 48
EDGE_WEIGHT_TYPE: EUC_2D
NODE_COORD_SECTION
+0 23 879
-0 23 879
+1 752 428
-1 22 310
+2 727 971
-2 107 541
+3 334 195
-3 606 900
+4 372 227
-4 354 710
+5 853 461
-5 636 758
+6 372 933
-6 210 659
+7 662 550
-7 523 5
+8 933 934
-8 141 461
+9 517 666
-9 260 134
+10 183 214
-10 349 860
+11 457 233
-11 195 667
+12 308 365
-12 818 835
+13 785 530
-13 772 597
+14 36 79
-14 624 558
+15 615 250
-15 115 266
+16 627 557
-16 85 169
+17 982 1
-17 578 327
+18 748 708
-18 671 138
+19 881 159
-19 892 837
+20 579 786
-20 38 563
+21 53 692
-21 102 165
+22 838 763
-22 208 469
+23 401 256
-23 382 800
PRECEDENCE_SECTION
+0 -0
+1 -1
+2 -2
+3 -3
+4 -4
+5 -5
+6 -6
+7 -7
+8 -8
+9 -9
+10 -10
+11 -11
+12 -12
+13 -13
+14 -14
+15 -15
+16 -16
+17 -17
+18 -18
+19 -19
+20 -20
+21 -21
+22 -22
+23 -23
EOF
